W=5;
H=3;

MAX_TIME=11;
MAX_TRACKS=6;
SEMAPHORE_SUPPLY=1;

TARGET=(1,5);

TRAINS=[(1,4,LEFT),(1,1,RIGHT)];
DECOYS=[];

INIT_POS=[
(1,1,STRAIGHT_RL),
(1,4,STRAIGHT_RL),
(1,5,STRAIGHT_RL),
];
TUNNEL_PAIRS=[];

GATES=[];
ACTIVATIONS=[];

DSWITCHES=[];
STATIONS=[];
